StringID Type x y demand ReadyTime DueDate ServiceTime
D0 d 40 50 0 0 3390 0
Dt d 40 50 0 0 3390 0
S0 f 40 50 0 0 3390 0
S11 f 10 28 0 0 3390 0
S14 f 27 10 0 0 3390 0
C39 c3 0 45 20 1642 2282 90
C50 c1 26 32 10 255 895 90
C60 c2 35 5 20 1152 1792 90
C58 c2 38 5 30 1245 1885 90
C53 c2 44 5 20 1431 2071 90
P0 p 35 10 0 0 3390 45
param Q := 77.75
param CV := 200
param r := 1
param g := 3.47
param V := 1
